NAME : P = NP
TYPE : TSP
DIMENSION : 14
EDGE_WEIGHT_TYPE : EUC_2D
NODE_COORD_SECTION
0 212 501
1 425 671
2 464 259
3 216 319
4 261 628
5 57 886
6 211 1
7 203 110
8 393 22
9 932 421
10 10 47
11 11 134
12 654 89
13 102 319